
n_res = 6;
rcap = [41, 51, 53, 52, 673, 711];
rtype = [1, 1, 1, 1, 2, 2];
n_tasks = 50;
modes =  [{1, 2, 3, 4, 5, 6}, {7, 8, 9, 10, 11, 12}, {13, 14, 15, 16, 17, 18}, {19, 20, 21, 22, 23, 24}, {25, 26, 27, 28, 29, 30}, {31, 32, 33, 34, 35, 36}, {37, 38, 39, 40, 41, 42}, {43, 44, 45, 46, 47, 48}, {49, 50, 51, 52, 53, 54}, {55, 56, 57, 58, 59, 60}, {61, 62, 63, 64, 65, 66}, {67, 68, 69, 70, 71, 72}, {73, 74, 75, 76, 77, 78}, {79, 80, 81, 82, 83, 84}, {85, 86, 87, 88, 89, 90}, {91, 92, 93, 94, 95, 96}, {97, 98, 99, 100, 101, 102}, {103, 104, 105, 106, 107, 108}, {109, 110, 111, 112, 113, 114}, {115, 116, 117, 118, 119, 120}, {121, 122, 123, 124, 125, 126}, {127, 128, 129, 130, 131, 132}, {133, 134, 135, 136, 137, 138}, {139, 140, 141, 142, 143, 144}, {145, 146, 147, 148, 149, 150}, {151, 152, 153, 154, 155, 156}, {157, 158, 159, 160, 161, 162}, {163, 164, 165, 166, 167, 168}, {169, 170, 171, 172, 173, 174}, {175, 176, 177, 178, 179, 180}, {181, 182, 183, 184, 185, 186}, {187, 188, 189, 190, 191, 192}, {193, 194, 195, 196, 197, 198}, {199, 200, 201, 202, 203, 204}, {205, 206, 207, 208, 209, 210}, {211, 212, 213, 214, 215, 216}, {217, 218, 219, 220, 221, 222}, {223, 224, 225, 226, 227, 228}, {229, 230, 231, 232, 233, 234}, {235, 236, 237, 238, 239, 240}, {241, 242, 243, 244, 245, 246}, {247, 248, 249, 250, 251, 252}, {253, 254, 255, 256, 257, 258}, {259, 260, 261, 262, 263, 264}, {265, 266, 267, 268, 269, 270}, {271, 272, 273, 274, 275, 276}, {277, 278, 279, 280, 281, 282}, {283, 284, 285, 286, 287, 288}, {289, 290, 291, 292, 293, 294}, {295, 296, 297, 298, 299, 300}];
succ =  [{50, 49, 29, 27, 26, 25, 22, 20, 19, 16}, {49, 46, 45, 29, 22, 7}, {50, 48, 47, 44, 43, 41, 34, 33, 32, 29, 26, 23}, {49, 48, 44, 34, 32, 30, 29, 25, 20}, {48, 46, 44, 42, 35, 32, 28, 22}, {47, 46, 45, 44, 43, 42, 41, 40, 37, 36, 33, 32}, {50, 48, 47, 44, 42, 40, 37, 34, 33, 32, 30}, {45, 42, 40, 34, 33, 32, 30, 22}, {46, 44, 42, 35, 32, 29, 22}, {48, 45, 44, 42, 40, 38, 22}, {44, 43, 42, 41, 40, 39, 37, 32, 30}, {45, 44, 42, 41, 37, 30, 29}, {49, 45, 42, 40, 38, 22}, {47, 46, 45, 44, 43, 41, 40, 39, 37, 36}, {49, 48, 37, 32, 29}, {48, 46, 44, 37, 33, 32}, {45, 40, 30, 27}, {48, 43, 42, 40, 39, 38, 36}, {47, 42, 39, 37, 30}, {47, 43, 41, 39, 38, 37}, {41, 40, 39, 38, 37, 36}, {43, 41, 39, 37, 36}, {40, 37, 30}, {45, 37, 30}, {46, 45, 37, 36}, {46, 42, 40, 36}, {47, 38, 37, 36}, {40, 39, 38, 37}, {40, 39, 36}, {38, 36}, {42, 41}, {38}, {39}, {39}, {41}, {}, {}, {}, {}, {}, {}, {}, {}, {}, {}, {}, {}, {}, {}, {}];
n_opt = 300;
dur = [1, 4, 14, 20, 23, 26, 1, 9, 13, 15, 22, 27, 8, 11, 16, 17, 21, 23, 4, 8, 16, 20, 23, 30, 2, 7, 10, 23, 26, 27, 8, 9, 16, 20, 22, 30, 6, 14, 15, 16, 18, 29, 14, 16, 17, 21, 25, 28, 14, 15, 20, 22, 24, 27, 1, 11, 14, 15, 29, 30, 1, 3, 8, 15, 19, 26, 9, 14, 15, 16, 17, 19, 7, 10, 18, 20, 24, 27, 5, 6, 14, 24, 25, 29, 3, 9, 10, 17, 20, 30, 2, 14, 17, 20, 22, 25, 3, 18, 20, 21, 25, 26, 3, 4, 11, 16, 24, 27, 1, 3, 4, 8, 13, 26, 5, 7, 8, 12, 26, 27, 3, 5, 8, 11, 13, 16, 7, 17, 21, 28, 29, 30, 8, 11, 14, 21, 24, 27, 9, 10, 11, 14, 19, 29, 8, 14, 17, 23, 28, 29, 5, 6, 10, 12, 23, 25, 4, 5, 6, 13, 19, 27, 18, 20, 21, 22, 27, 30, 3, 5, 8, 14, 22, 27, 3, 4, 13, 14, 18, 21, 4, 12, 21, 22, 25, 30, 2, 9, 10, 19, 27, 28, 3, 12, 14, 18, 24, 29, 1, 3, 4, 8, 18, 21, 1, 5, 10, 22, 24, 27, 1, 11, 16, 20, 27, 28, 3, 13, 19, 27, 28, 29, 2, 5, 14, 19, 27, 30, 7, 12, 14, 20, 21, 24, 5, 6, 7, 10, 21, 27, 10, 13, 14, 16, 21, 26, 16, 17, 23, 26, 27, 28, 6, 8, 9, 10, 22, 27, 2, 3, 5, 23, 26, 27, 3, 10, 15, 16, 17, 19, 4, 5, 19, 25, 29, 30, 1, 4, 5, 6, 27, 28, 2, 8, 12, 18, 20, 30, 3, 15, 16, 26, 28, 29, 1, 11, 12, 19, 25, 26];
rreq = [|4, 4, 3, 3, 3, 2, 2, 2, 2, 2, 2, 2, 1, 1, 1, 1, 1, 1, 2, 1, 1, 1, 1, 1, 1, 1, 1, 1, 1, 1, 4, 3, 3, 2, 2, 2, 3, 2, 2, 2, 1, 1, 2, 2, 2, 2, 2, 2, 3, 2, 2, 2, 1, 1, 2, 1, 1, 1, 1, 1, 3, 2, 2, 1, 1, 1, 4, 4, 3, 3, 3, 2, 5, 4, 3, 3, 2, 2, 2, 2, 2, 2, 2, 2, 2, 1, 1, 1, 1, 1, 5, 4, 4, 4, 4, 4, 1, 1, 1, 1, 1, 1, 5, 4, 4, 4, 3, 3, 4, 4, 3, 3, 2, 2, 5, 5, 5, 5, 5, 5, 1, 1, 1, 1, 1, 1, 3, 3, 3, 3, 3, 3, 4, 3, 3, 3, 2, 1, 4, 4, 4, 4, 4, 4, 3, 3, 3, 3, 3, 3, 3, 3, 3, 2, 2, 2, 1, 1, 1, 1, 1, 1, 4, 3, 3, 3, 3, 3, 5, 4, 4, 3, 3, 2, 1, 1, 1, 1, 1, 1, 5, 4, 4, 3, 3, 3, 4, 3, 3, 3, 3, 3, 4, 4, 4, 4, 4, 4, 4, 3, 2, 2, 1, 1, 4, 4, 4, 3, 2, 2, 4, 3, 3, 3, 2, 2, 3, 3, 3, 3, 3, 3, 3, 3, 3, 3, 3, 3, 5, 4, 4, 4, 4, 4, 5, 4, 3, 2, 2, 1, 4, 3, 3, 3, 3, 3, 3, 3, 2, 2, 2, 1, 4, 4, 4, 4, 3, 3, 4, 4, 4, 3, 3, 3, 4, 3, 3, 3, 2, 2, 5, 5, 5, 5, 5, 5, 3, 2, 2, 1, 1, 1, 2, 2, 2, 1, 1, 1, 1, 1, 1, 1, 1, 1, 5, 4, 4, 4, 3, 3
 |1, 1, 1, 1, 1, 1, 5, 4, 3, 3, 2, 2, 4, 3, 3, 3, 2, 2, 4, 4, 4, 4, 4, 4, 3, 3, 3, 3, 2, 2, 4, 4, 4, 4, 4, 4, 2, 2, 2, 1, 1, 1, 2, 2, 2, 2, 1, 1, 5, 5, 5, 5, 5, 5, 5, 4, 3, 3, 2, 1, 4, 3, 3, 3, 3, 3, 3, 3, 3, 3, 3, 3, 4, 3, 3, 2, 2, 1, 4, 4, 4, 4, 4, 4, 2, 2, 2, 2, 1, 1, 4, 3, 3, 3, 3, 3, 4, 4, 4, 3, 3, 2, 3, 2, 2, 2, 2, 2, 5, 5, 5, 5, 5, 5, 4, 3, 3, 3, 1, 1, 5, 5, 5, 5, 5, 5, 5, 4, 4, 3, 2, 2, 3, 2, 2, 2, 2, 2, 2, 2, 2, 2, 2, 2, 4, 4, 4, 4, 3, 3, 4, 3, 3, 2, 2, 2, 2, 2, 2, 2, 2, 2, 3, 3, 3, 3, 3, 3, 5, 4, 4, 4, 3, 3, 4, 3, 3, 2, 2, 1, 3, 3, 3, 2, 2, 1, 5, 5, 5, 5, 5, 5, 3, 3, 3, 2, 2, 2, 2, 2, 2, 2, 2, 2, 2, 2, 2, 2, 1, 1, 1, 1, 1, 1, 1, 1, 1, 1, 1, 1, 1, 1, 3, 2, 2, 1, 1, 1, 5, 5, 5, 5, 5, 5, 3, 3, 3, 3, 3, 3, 2, 2, 2, 1, 1, 1, 4, 4, 4, 4, 3, 3, 3, 3, 3, 2, 2, 2, 3, 2, 2, 1, 1, 1, 2, 2, 2, 2, 2, 2, 4, 4, 4, 3, 2, 2, 5, 4, 3, 3, 2, 2, 4, 4, 4, 3, 3, 3, 5, 4, 4, 3, 3, 2, 5, 4, 3, 2, 2, 1
 |2, 2, 2, 2, 2, 2, 2, 1, 1, 1, 1, 1, 4, 3, 3, 3, 3, 3, 5, 4, 4, 4, 4, 4, 5, 5, 5, 5, 5, 5, 5, 5, 5, 5, 5, 5, 3, 3, 3, 3, 3, 3, 1, 1, 1, 1, 1, 1, 4, 4, 4, 4, 4, 4, 2, 2, 2, 2, 2, 2, 2, 1, 1, 1, 1, 1, 3, 2, 2, 2, 2, 2, 5, 4, 4, 3, 2, 2, 5, 4, 4, 4, 4, 4, 3, 3, 3, 3, 3, 3, 4, 3, 3, 3, 2, 2, 4, 4, 4, 3, 3, 3, 5, 4, 4, 4, 4, 4, 3, 3, 2, 2, 1, 1, 4, 3, 3, 3, 3, 3, 3, 3, 3, 2, 2, 2, 4, 3, 2, 2, 2, 1, 4, 4, 4, 4, 4, 4, 4, 3, 3, 2, 2, 2, 3, 3, 3, 3, 3, 3, 5, 3, 3, 3, 2, 1, 3, 3, 3, 3, 3, 3, 4, 3, 3, 2, 2, 2, 2, 2, 2, 2, 2, 2, 5, 5, 5, 5, 5, 5, 4, 3, 3, 3, 2, 2, 3, 3, 3, 3, 3, 3, 3, 3, 2, 2, 1, 1, 3, 3, 3, 3, 2, 2, 4, 4, 4, 3, 3, 3, 3, 3, 3, 3, 3, 3, 3, 2, 2, 2, 1, 1, 4, 3, 3, 2, 2, 1, 4, 4, 4, 4, 4, 4, 5, 4, 4, 4, 4, 4, 5, 5, 5, 5, 5, 5, 4, 4, 4, 4, 4, 4, 4, 4, 4, 4, 4, 4, 3, 3, 2, 2, 1, 1, 2, 2, 2, 2, 1, 1, 2, 1, 1, 1, 1, 1, 4, 3, 3, 3, 2, 2, 4, 4, 4, 4, 4, 4, 2, 1, 1, 1, 1, 1, 3, 3, 3, 3, 2, 2
 |5, 4, 4, 4, 4, 4, 4, 4, 3, 2, 1, 1, 3, 3, 3, 3, 2, 2, 4, 3, 3, 2, 2, 1, 4, 4, 4, 4, 4, 4, 4, 3, 3, 2, 2, 1, 3, 2, 2, 2, 2, 2, 3, 2, 2, 2, 2, 2, 3, 3, 3, 3, 2, 2, 3, 3, 3, 3, 3, 3, 3, 2, 2, 2, 2, 2, 4, 3, 3, 2, 2, 2, 2, 1, 1, 1, 1, 1, 3, 3, 3, 3, 3, 3, 4, 3, 3, 2, 2, 2, 5, 4, 3, 3, 2, 1, 4, 4, 3, 3, 3, 2, 3, 3, 3, 3, 3, 3, 3, 2, 2, 2, 1, 1, 5, 4, 4, 3, 2, 2, 5, 4, 3, 3, 3, 2, 5, 5, 5, 5, 5, 5, 4, 3, 3, 2, 2, 2, 4, 4, 4, 4, 4, 4, 3, 3, 3, 3, 3, 3, 4, 3, 3, 3, 3, 3, 3, 2, 2, 1, 1, 1, 2, 2, 2, 1, 1, 1, 2, 1, 1, 1, 1, 1, 5, 5, 5, 5, 5, 5, 3, 3, 3, 3, 3, 3, 5, 4, 4, 4, 3, 3, 4, 4, 4, 4, 4, 4, 2, 2, 2, 2, 1, 1, 2, 2, 2, 2, 1, 1, 1, 1, 1, 1, 1, 1, 4, 4, 3, 3, 3, 2, 4, 3, 3, 3, 2, 2, 2, 1, 1, 1, 1, 1, 3, 2, 2, 2, 1, 1, 4, 4, 4, 4, 4, 4, 2, 2, 2, 2, 2, 2, 4, 4, 4, 3, 3, 2, 3, 3, 3, 3, 3, 3, 4, 3, 3, 2, 1, 1, 4, 4, 3, 3, 2, 1, 5, 4, 4, 3, 2, 2, 2, 2, 2, 1, 1, 1, 2, 2, 2, 2, 2, 2, 5, 4, 4, 4, 3, 3
 |19, 18, 17, 16, 15, 14, 17, 16, 15, 12, 11, 9, 15, 15, 15, 15, 15, 15, 24, 22, 21, 20, 19, 19, 12, 9, 8, 8, 5, 5, 11, 10, 7, 6, 4, 2, 24, 23, 22, 21, 18, 17, 16, 13, 10, 10, 6, 4, 27, 24, 21, 18, 14, 12, 22, 17, 13, 12, 10, 3, 20, 15, 13, 8, 7, 1, 22, 18, 18, 15, 14, 12, 20, 19, 19, 19, 19, 19, 9, 9, 8, 8, 8, 7, 6, 4, 3, 3, 2, 1, 26, 25, 20, 18, 15, 10, 26, 24, 20, 15, 12, 8, 5, 4, 4, 4, 3, 3, 22, 21, 20, 19, 18, 16, 23, 23, 19, 17, 17, 13, 17, 16, 16, 16, 15, 15, 23, 22, 15, 14, 6, 5, 24, 20, 18, 15, 10, 9, 28, 26, 24, 23, 23, 21, 23, 22, 21, 20, 18, 18, 25, 23, 20, 13, 11, 7, 30, 26, 25, 20, 19, 18, 29, 26, 25, 25, 23, 22, 14, 14, 13, 11, 10, 10, 16, 14, 14, 14, 13, 12, 13, 9, 7, 7, 5, 3, 14, 14, 14, 13, 13, 13, 27, 27, 24, 24, 22, 20, 19, 18, 16, 16, 14, 14, 21, 20, 16, 14, 12, 10, 6, 5, 4, 4, 3, 3, 17, 15, 15, 11, 8, 7, 28, 25, 21, 16, 13, 8, 18, 16, 15, 11, 10, 8, 15, 13, 10, 9, 7, 6, 30, 28, 27, 27, 25, 25, 26, 25, 23, 23, 21, 20, 22, 18, 14, 12, 9, 6, 29, 27, 25, 25, 23, 23, 20, 18, 16, 11, 7, 7, 11, 9, 8, 7, 6, 5, 23, 23, 22, 19, 19, 18, 27, 26, 26, 24, 23, 23, 29, 27, 24, 24, 22, 19, 4, 4, 3, 3, 2, 2
 |26, 19, 18, 13, 10, 8, 21, 21, 21, 20, 19, 19, 26, 26, 25, 24, 25, 24, 11, 10, 10, 10, 9, 8, 13, 13, 11, 8, 6, 4, 22, 20, 16, 11, 11, 7, 22, 20, 17, 17, 13, 12, 13, 12, 11, 9, 9, 7, 25, 23, 20, 14, 14, 8, 3, 2, 2, 2, 2, 2, 26, 25, 23, 21, 17, 17, 24, 22, 21, 17, 17, 14, 29, 27, 26, 25, 21, 20, 4, 3, 3, 2, 1, 2, 26, 26, 26, 26, 26, 26, 15, 12, 10, 7, 6, 3, 20, 19, 17, 16, 16, 14, 14, 14, 11, 7, 7, 3, 12, 11, 11, 10, 10, 9, 14, 13, 12, 11, 9, 9, 17, 15, 13, 11, 8, 7, 10, 8, 8, 6, 6, 5, 28, 28, 27, 27, 26, 26, 25, 20, 17, 15, 8, 8, 15, 12, 11, 7, 6, 1, 19, 18, 17, 15, 14, 12, 23, 19, 18, 14, 11, 9, 23, 21, 17, 15, 14, 11, 13, 13, 13, 13, 13, 13, 23, 21, 20, 20, 19, 17, 28, 26, 24, 23, 22, 22, 25, 19, 17, 15, 11, 6, 27, 26, 23, 21, 18, 17, 24, 21, 16, 12, 12, 7, 16, 14, 13, 11, 10, 9, 25, 24, 20, 14, 9, 3, 25, 23, 23, 22, 21, 21, 29, 29, 29, 28, 27, 27, 9, 9, 7, 6, 6, 4, 10, 9, 9, 8, 6, 5, 28, 26, 23, 22, 21, 19, 21, 21, 19, 18, 17, 16, 21, 20, 20, 18, 18, 17, 15, 15, 15, 14, 14, 13, 26, 25, 24, 24, 21, 20, 23, 23, 19, 18, 15, 12, 24, 23, 23, 21, 20, 19, 25, 25, 24, 25, 25, 24, 20, 20, 20, 20, 20, 20, 23, 19, 15, 11, 8, 5|];